p edge 29 39
e 4 2
e 7 2
e 8 3
e 9 2
e 10 2
e 10 5
e 12 11
e 13 2
e 14 1
e 14 2
e 14 3
e 16 6
e 16 7
e 19 11
e 19 15
e 19 17
e 20 1
e 21 7
e 21 11
e 21 17
e 21 18
e 22 7
e 22 17
e 23 12
e 23 17
e 24 4
e 25 12
e 25 18
e 25 24
e 26 9
e 26 14
e 27 5
e 27 11
e 27 18
e 27 21
e 28 5
e 29 6
e 29 18
e 29 24
